\ Model Cl_40_Ins_4.lp
\ LP format - for model browsing. Use MPS format to capture full model detail.
Maximize
 
Subject To
 obj1: y[0] = 0
 obj2: y[1] = 0
 obj1_Exp: - y[0] + 97 x[0] + 97 x[1] + 96 x[2] + 91 x[3] + 89 x[4]
   + 86 x[5] + 79 x[6] + 77 x[7] + 76 x[8] + 76 x[9] + 71 x[10] + 69 x[11]
   + 66 x[12] + 66 x[13] + 65 x[14] + 64 x[15] + 63 x[16] + 63 x[17]
   + 57 x[18] + 54 x[19] + 54 x[20] + 50 x[21] + 47 x[22] + 46 x[23]
   + 35 x[24] + 34 x[25] + 29 x[26] + 29 x[27] + 24 x[28] + 23 x[29]
   + 19 x[30] + 18 x[31] + 18 x[32] + 15 x[33] + 15 x[34] + 8 x[35]
   + 7 x[36] + 6 x[37] + 4 x[38] + 4 x[39] = 0
 obj2_Exp: - y[1] + 21 x[0] + 75 x[1] + 55 x[2] + 62 x[3] + 80 x[4]
   + 48 x[5] + 21 x[6] + 33 x[7] + 48 x[8] + 56 x[9] + 39 x[10] + 93 x[11]
   + 35 x[12] + 52 x[13] + 63 x[14] + 39 x[15] + 66 x[16] + 90 x[17]
   + 51 x[18] + 97 x[19] + 54 x[20] + 23 x[21] + 28 x[22] + 87 x[23]
   + 93 x[24] + 55 x[25] + 17 x[26] + 99 x[27] + 21 x[28] + 61 x[29]
   + 19 x[30] + 29 x[31] + 33 x[32] + 26 x[33] + 12 x[34] + 36 x[35]
   + 20 x[36] + 29 x[37] + 18 x[38] + 90 x[39] = 0
 Budget: 107 x[0] + 107 x[1] + 106 x[2] + 101 x[3] + 99 x[4] + 96 x[5]
   + 89 x[6] + 87 x[7] + 86 x[8] + 86 x[9] + 81 x[10] + 79 x[11] + 76 x[12]
   + 76 x[13] + 75 x[14] + 74 x[15] + 73 x[16] + 73 x[17] + 67 x[18]
   + 64 x[19] + 64 x[20] + 60 x[21] + 57 x[22] + 56 x[23] + 45 x[24]
   + 44 x[25] + 39 x[26] + 39 x[27] + 34 x[28] + 33 x[29] + 29 x[30]
   + 28 x[31] + 28 x[32] + 25 x[33] + 25 x[34] + 18 x[35] + 17 x[36]
   + 16 x[37] + 14 x[38] + 14 x[39] <= 936
Bounds
Binaries
 x[0] x[1] x[2] x[3] x[4] x[5] x[6] x[7] x[8] x[9] x[10] x[11] x[12] x[13]
 x[14] x[15] x[16] x[17] x[18] x[19] x[20] x[21] x[22] x[23] x[24] x[25]
 x[26] x[27] x[28] x[29] x[30] x[31] x[32] x[33] x[34] x[35] x[36] x[37]
 x[38] x[39]
Generals
 y[0] y[1]
End
